jobs  (incl. supersource/sink ):	102
RESOURCES
- renewable                 : 4 R
- nonrenewable              : 2 N
- doubly constrained        : 0 D
************************************************************************
PRECEDENCE RELATIONS:
jobnr.    #modes  #successors   successors
1	1	30		2 3 4 5 6 7 8 9 10 11 12 13 14 15 18 19 20 22 23 24 26 27 28 31 33 34 36 39 41 53 
2	9	18		100 99 98 97 94 77 75 65 59 58 57 56 51 50 44 43 29 17 
3	9	15		99 97 77 66 65 60 56 54 51 40 38 35 32 29 21 
4	9	15		98 94 70 67 66 65 64 57 51 48 42 35 30 25 16 
5	9	19		98 95 93 74 72 70 69 67 65 63 62 58 57 56 55 54 47 40 38 
6	9	16		101 100 99 98 95 88 78 76 75 61 59 56 54 49 46 35 
7	9	18		97 95 94 93 92 78 75 71 70 65 64 62 61 58 56 55 50 37 
8	9	17		99 98 97 92 91 78 77 74 69 68 67 61 59 58 52 49 48 
9	9	15		97 95 94 78 77 76 75 68 67 63 61 56 49 46 35 
10	9	16		98 97 94 91 90 89 86 78 77 74 68 67 65 50 48 43 
11	9	11		97 95 93 70 69 68 61 58 54 45 35 
12	9	18		99 98 96 94 93 92 89 76 74 70 69 68 67 62 61 55 50 47 
13	9	16		100 99 91 77 75 74 72 70 68 67 63 61 57 56 54 49 
14	9	9		97 95 78 70 67 55 52 49 38 
15	9	13		96 95 94 89 81 77 74 69 66 65 58 49 38 
16	9	12		97 95 92 75 74 69 63 61 58 56 55 49 
17	9	9		92 78 69 68 64 62 55 49 37 
18	9	13		97 92 91 90 76 74 71 70 68 56 54 52 50 
19	9	11		99 96 94 91 69 68 67 63 58 51 47 
20	9	15		101 98 93 91 86 85 82 77 76 74 72 71 64 61 60 
21	9	14		98 95 93 92 91 90 89 80 72 70 69 68 67 57 
22	9	13		98 97 94 91 84 76 75 74 73 72 70 67 59 
23	9	9		100 93 90 89 88 87 71 56 44 
24	9	15		101 97 96 95 94 93 91 88 87 86 84 81 76 67 59 
25	9	9		92 91 87 86 78 72 68 63 49 
26	9	11		91 89 88 82 78 75 74 72 71 69 57 
27	9	10		98 92 91 88 87 84 81 75 58 49 
28	9	9		92 85 79 77 74 72 63 57 54 
29	9	12		91 90 87 86 82 80 78 76 72 70 64 63 
30	9	11		97 92 91 89 88 86 84 82 76 75 50 
31	9	9		96 95 92 91 90 89 67 56 47 
32	9	9		93 90 88 87 75 71 67 64 55 
33	9	8		97 90 86 77 74 71 67 50 
34	9	9		98 92 80 77 75 74 72 67 62 
35	9	8		89 87 74 73 72 71 62 55 
36	9	10		91 90 87 86 84 83 72 71 68 56 
37	9	10		96 90 89 88 87 86 80 74 72 67 
38	9	9		92 86 85 83 76 75 71 68 61 
39	9	9		93 89 88 86 84 76 72 71 67 
40	9	9		96 94 91 88 86 83 80 75 64 
41	9	9		92 91 89 85 82 79 73 71 70 
42	9	8		93 91 89 88 87 83 75 56 
43	9	8		93 92 87 85 83 82 71 69 
44	9	5		95 92 83 72 55 
45	9	9		94 92 87 86 84 81 80 79 77 
46	9	7		92 86 82 81 74 73 69 
47	9	8		87 86 84 83 82 81 79 71 
48	9	7		96 95 81 80 76 75 73 
49	9	6		93 90 85 79 73 71 
50	9	6		87 85 80 79 73 72 
51	9	6		90 87 86 79 74 72 
52	9	6		94 89 88 83 75 72 
53	9	5		90 86 84 76 67 
54	9	6		94 86 84 82 81 80 
55	9	5		91 86 84 82 80 
56	9	5		85 82 81 80 79 
57	9	4		87 86 84 73 
58	9	3		85 82 76 
59	9	3		90 82 71 
60	9	3		83 81 75 
61	9	3		90 87 80 
62	9	3		86 84 79 
63	9	3		89 88 83 
64	9	3		89 84 81 
65	9	3		85 80 79 
66	9	3		86 84 82 
67	9	2		85 82 
68	9	2		82 79 
69	9	2		84 79 
70	9	2		88 81 
71	9	1		80 
72	9	1		81 
73	9	1		83 
74	9	1		83 
75	9	1		79 
76	9	1		79 
77	9	1		88 
78	9	1		85 
79	9	1		102 
80	9	1		102 
81	9	1		102 
82	9	1		102 
83	9	1		102 
84	9	1		102 
85	9	1		102 
86	9	1		102 
87	9	1		102 
88	9	1		102 
89	9	1		102 
90	9	1		102 
91	9	1		102 
92	9	1		102 
93	9	1		102 
94	9	1		102 
95	9	1		102 
96	9	1		102 
97	9	1		102 
98	9	1		102 
99	9	1		102 
100	9	1		102 
101	9	1		102 
102	1	0		
************************************************************************
REQUESTS/DURATIONS
jobnr.	mode	dur	R1	R2	R3	R4	N1	N2	
------------------------------------------------------------------------
1	1	0	0	0	0	0	0	0	
2	1	10	5	5	3	2	25	19	
	2	11	4	4	3	2	24	18	
	3	12	4	4	3	2	24	17	
	4	13	4	4	3	2	23	16	
	5	15	3	3	3	2	22	16	
	6	18	3	3	2	2	22	14	
	7	19	3	2	2	2	22	14	
	8	24	3	2	2	2	20	13	
	9	29	3	2	2	2	20	12	
3	1	13	5	3	4	4	9	15	
	2	15	4	3	4	4	8	15	
	3	20	4	3	4	4	8	14	
	4	22	3	3	3	4	7	13	
	5	23	3	3	3	4	7	12	
	6	25	3	3	3	4	7	11	
	7	26	2	3	3	4	7	12	
	8	27	2	3	2	4	6	11	
	9	29	2	3	2	4	6	10	
4	1	1	1	3	5	2	27	17	
	2	7	1	2	4	1	22	16	
	3	8	1	2	4	1	20	14	
	4	15	1	2	4	1	18	13	
	5	18	1	2	4	1	13	13	
	6	23	1	2	4	1	9	11	
	7	24	1	2	4	1	8	10	
	8	25	1	2	4	1	3	9	
	9	30	1	2	4	1	2	8	
5	1	1	4	2	1	2	24	27	
	2	10	4	2	1	2	23	23	
	3	16	4	2	1	2	23	21	
	4	17	4	2	1	2	23	18	
	5	19	4	2	1	2	23	16	
	6	21	4	2	1	2	23	12	
	7	22	4	2	1	2	23	11	
	8	27	4	2	1	2	23	10	
	9	29	4	2	1	2	23	6	
6	1	6	5	4	2	4	16	10	
	2	8	4	4	2	3	13	9	
	3	12	3	4	2	3	13	8	
	4	15	3	4	2	3	11	7	
	5	17	3	4	2	3	10	5	
	6	21	2	3	2	3	8	4	
	7	25	2	3	2	3	6	3	
	8	26	1	3	2	3	5	2	
	9	30	1	3	2	3	4	1	
7	1	1	1	4	5	3	24	22	
	2	2	1	4	4	3	24	20	
	3	5	1	3	4	3	23	20	
	4	6	1	3	3	3	21	17	
	5	11	1	2	3	2	21	17	
	6	12	1	2	3	2	21	16	
	7	18	1	2	3	2	20	15	
	8	20	1	1	2	2	18	12	
	9	27	1	1	2	2	18	11	
8	1	2	3	3	2	3	26	24	
	2	8	2	3	2	2	25	23	
	3	9	2	3	2	2	24	22	
	4	12	2	3	2	2	23	21	
	5	13	2	3	2	2	21	19	
	6	14	2	2	2	2	21	18	
	7	16	2	2	2	2	20	17	
	8	21	2	2	2	2	19	16	
	9	23	2	2	2	2	17	15	
9	1	3	5	4	4	2	11	15	
	2	4	4	3	4	2	9	15	
	3	8	4	3	4	2	8	14	
	4	9	3	2	4	2	8	13	
	5	13	2	2	4	2	6	11	
	6	15	2	2	4	2	5	10	
	7	16	2	2	4	2	5	9	
	8	27	1	1	4	2	4	8	
	9	28	1	1	4	2	3	7	
10	1	6	1	4	5	4	27	23	
	2	8	1	4	5	3	26	21	
	3	11	1	4	5	3	24	19	
	4	12	1	4	5	3	24	16	
	5	13	1	4	5	3	23	16	
	6	14	1	4	5	3	21	13	
	7	16	1	4	5	3	19	12	
	8	18	1	4	5	3	18	8	
	9	23	1	4	5	3	17	7	
11	1	4	4	4	4	5	18	20	
	2	8	4	4	4	4	16	20	
	3	11	4	4	4	4	13	19	
	4	12	4	4	4	3	11	18	
	5	13	4	4	4	3	10	18	
	6	14	4	4	4	2	10	17	
	7	16	4	4	4	2	8	16	
	8	17	4	4	4	1	5	16	
	9	21	4	4	4	1	4	15	
12	1	1	4	3	3	4	25	13	
	2	3	4	2	3	4	24	12	
	3	5	4	2	3	4	24	11	
	4	6	4	2	3	4	23	11	
	5	7	4	2	3	4	23	8	
	6	8	4	2	3	3	23	8	
	7	13	4	2	3	3	23	6	
	8	15	4	2	3	3	22	5	
	9	25	4	2	3	3	22	3	
13	1	1	1	3	3	5	28	19	
	2	3	1	3	3	4	25	18	
	3	8	1	3	3	4	23	16	
	4	9	1	3	3	4	22	14	
	5	12	1	3	2	3	19	11	
	6	15	1	3	2	3	17	9	
	7	19	1	3	1	3	17	8	
	8	23	1	3	1	3	15	4	
	9	27	1	3	1	3	13	2	
14	1	3	3	1	3	2	4	19	
	2	6	3	1	2	1	4	16	
	3	12	3	1	2	1	4	15	
	4	13	3	1	2	1	4	14	
	5	16	3	1	2	1	3	11	
	6	25	2	1	2	1	3	8	
	7	27	2	1	2	1	3	6	
	8	28	2	1	2	1	3	4	
	9	29	2	1	2	1	3	2	
15	1	2	2	2	4	3	8	19	
	2	3	1	2	4	3	8	17	
	3	10	1	2	4	3	7	14	
	4	13	1	2	4	3	7	13	
	5	14	1	2	3	3	7	12	
	6	15	1	2	3	2	6	7	
	7	22	1	2	3	2	5	5	
	8	23	1	2	3	2	5	4	
	9	27	1	2	3	2	5	3	
16	1	1	3	3	5	4	6	15	
	2	2	3	2	4	3	4	13	
	3	3	3	2	4	3	4	12	
	4	7	3	2	4	3	3	12	
	5	9	3	2	4	3	3	10	
	6	10	3	2	4	2	3	10	
	7	11	3	2	4	2	2	9	
	8	18	3	2	4	2	2	7	
	9	26	3	2	4	2	1	7	
17	1	1	3	3	4	5	24	22	
	2	3	3	3	4	4	24	18	
	3	11	3	3	4	4	24	15	
	4	12	2	3	4	3	24	13	
	5	13	2	3	4	3	23	10	
	6	21	2	3	4	3	23	9	
	7	27	1	3	4	2	23	8	
	8	28	1	3	4	2	23	3	
	9	29	1	3	4	2	23	2	
18	1	3	4	4	2	5	27	27	
	2	8	4	4	1	4	26	24	
	3	20	4	4	1	4	26	23	
	4	21	4	4	1	4	26	20	
	5	22	4	4	1	4	26	18	
	6	23	3	3	1	3	25	16	
	7	24	3	3	1	3	25	11	
	8	25	3	3	1	3	25	9	
	9	26	3	3	1	3	25	7	
19	1	2	3	2	5	4	19	22	
	2	4	3	2	4	4	18	21	
	3	6	3	2	4	4	18	19	
	4	13	2	2	4	4	18	17	
	5	15	2	2	4	4	17	15	
	6	20	2	2	4	3	17	12	
	7	27	1	2	4	3	17	11	
	8	28	1	2	4	3	17	8	
	9	30	1	2	4	3	17	6	
20	1	2	4	5	3	5	29	20	
	2	3	4	4	2	5	28	19	
	3	17	4	4	2	5	28	17	
	4	24	3	4	2	5	27	15	
	5	25	3	4	1	5	27	15	
	6	26	3	3	1	5	27	12	
	7	27	2	3	1	5	27	12	
	8	28	2	3	1	5	26	9	
	9	29	2	3	1	5	26	8	
21	1	3	1	1	5	4	8	22	
	2	11	1	1	4	4	7	20	
	3	12	1	1	4	4	7	19	
	4	13	1	1	4	3	7	17	
	5	14	1	1	4	3	7	13	
	6	16	1	1	4	3	7	12	
	7	24	1	1	4	3	7	9	
	8	25	1	1	4	2	7	4	
	9	29	1	1	4	2	7	2	
22	1	11	3	4	4	5	7	9	
	2	12	3	4	4	4	6	8	
	3	15	3	4	3	4	6	8	
	4	16	2	4	3	3	5	8	
	5	17	2	4	3	2	4	7	
	6	18	2	4	2	2	4	7	
	7	28	1	4	1	1	3	7	
	8	29	1	4	1	1	2	7	
	9	30	1	4	1	1	2	6	
23	1	11	4	1	4	2	16	19	
	2	13	4	1	4	2	14	19	
	3	15	4	1	4	2	12	18	
	4	16	4	1	4	2	12	17	
	5	21	3	1	4	2	8	15	
	6	22	3	1	3	1	8	15	
	7	23	3	1	3	1	5	14	
	8	26	3	1	3	1	5	12	
	9	27	3	1	3	1	2	11	
24	1	2	4	2	4	4	13	6	
	2	5	3	2	3	4	12	5	
	3	6	3	2	3	4	12	4	
	4	8	2	2	3	4	10	4	
	5	14	2	2	3	4	10	3	
	6	18	2	1	3	4	9	3	
	7	19	1	1	3	4	9	3	
	8	20	1	1	3	4	7	2	
	9	21	1	1	3	4	7	1	
25	1	8	1	4	5	5	30	27	
	2	16	1	4	4	4	28	24	
	3	17	1	4	3	4	26	24	
	4	21	1	4	3	4	25	21	
	5	24	1	4	3	4	23	20	
	6	25	1	4	2	4	20	20	
	7	26	1	4	2	4	19	19	
	8	27	1	4	1	4	18	16	
	9	28	1	4	1	4	16	16	
26	1	7	2	4	3	1	25	13	
	2	11	1	3	3	1	24	12	
	3	14	1	3	3	1	21	11	
	4	15	1	3	3	1	21	10	
	5	16	1	2	3	1	19	10	
	6	21	1	2	2	1	16	9	
	7	24	1	1	2	1	14	9	
	8	25	1	1	2	1	11	8	
	9	26	1	1	2	1	10	7	
27	1	2	4	5	3	2	27	16	
	2	11	3	4	3	2	27	15	
	3	13	3	4	3	2	27	14	
	4	17	3	4	3	2	26	15	
	5	19	2	4	3	1	26	14	
	6	22	2	3	3	1	26	14	
	7	24	2	3	3	1	25	13	
	8	29	2	3	3	1	25	12	
	9	30	2	3	3	1	25	11	
28	1	5	4	2	3	4	15	17	
	2	10	3	2	3	4	15	17	
	3	11	3	2	3	4	13	17	
	4	12	3	2	3	4	13	16	
	5	12	3	1	2	4	11	17	
	6	18	3	1	2	4	9	17	
	7	23	3	1	2	4	8	17	
	8	24	3	1	1	4	7	18	
	9	25	3	1	1	4	7	17	
29	1	11	5	2	4	4	8	25	
	2	12	4	2	3	4	7	24	
	3	13	4	2	3	4	7	23	
	4	14	4	2	3	3	7	22	
	5	15	4	1	3	3	7	22	
	6	16	3	1	2	2	7	22	
	7	17	3	1	2	2	7	21	
	8	18	3	1	2	1	7	21	
	9	28	3	1	2	1	7	20	
30	1	7	1	4	3	1	24	15	
	2	8	1	4	3	1	21	14	
	3	9	1	4	3	1	20	13	
	4	10	1	3	3	1	19	12	
	5	11	1	3	2	1	16	12	
	6	19	1	3	2	1	15	12	
	7	20	1	2	2	1	11	11	
	8	21	1	2	2	1	9	9	
	9	22	1	2	2	1	8	9	
31	1	1	3	5	2	4	28	10	
	2	2	2	4	2	4	27	10	
	3	3	2	4	2	4	27	9	
	4	8	2	4	2	4	27	8	
	5	13	1	3	2	4	27	8	
	6	14	1	3	2	3	27	8	
	7	19	1	2	2	3	27	8	
	8	20	1	2	2	3	27	7	
	9	23	1	2	2	3	27	6	
32	1	2	4	5	2	2	6	11	
	2	6	3	4	2	1	5	10	
	3	7	3	4	2	1	4	10	
	4	10	2	4	2	1	4	10	
	5	19	2	4	2	1	3	9	
	6	20	2	3	2	1	2	9	
	7	21	1	3	2	1	2	9	
	8	21	1	3	2	1	1	10	
	9	22	1	3	2	1	1	9	
33	1	3	3	5	2	3	25	26	
	2	6	3	4	2	2	23	23	
	3	7	3	4	2	2	19	21	
	4	8	3	4	2	2	17	20	
	5	9	3	3	2	2	15	18	
	6	10	3	3	2	2	14	17	
	7	18	3	2	2	2	8	15	
	8	19	3	2	2	2	6	13	
	9	23	3	2	2	2	4	10	
34	1	6	2	3	4	4	29	19	
	2	9	2	3	3	4	27	19	
	3	10	2	3	3	3	25	15	
	4	11	2	3	2	3	25	13	
	5	12	2	3	2	2	22	12	
	6	16	2	3	2	2	22	9	
	7	23	2	3	2	1	20	9	
	8	24	2	3	1	1	20	6	
	9	26	2	3	1	1	19	4	
35	1	6	1	2	2	5	13	25	
	2	7	1	1	1	4	13	24	
	3	8	1	1	1	3	13	22	
	4	9	1	1	1	3	13	18	
	5	11	1	1	1	3	13	16	
	6	15	1	1	1	2	13	15	
	7	17	1	1	1	2	13	13	
	8	19	1	1	1	1	13	11	
	9	22	1	1	1	1	13	8	
36	1	4	5	4	4	4	18	10	
	2	5	4	3	4	4	15	8	
	3	6	4	3	4	4	14	7	
	4	16	4	3	3	4	13	6	
	5	18	4	3	3	4	12	6	
	6	25	3	2	3	3	10	4	
	7	26	3	2	3	3	8	4	
	8	27	3	2	2	3	6	3	
	9	28	3	2	2	3	6	1	
37	1	2	3	5	4	3	2	20	
	2	3	3	4	3	3	1	20	
	3	12	3	4	3	3	1	19	
	4	15	3	4	3	2	1	20	
	5	19	2	3	3	2	1	19	
	6	22	2	3	3	2	1	18	
	7	26	2	2	3	2	1	19	
	8	27	2	2	3	1	1	19	
	9	28	2	2	3	1	1	18	
38	1	1	5	2	1	5	12	23	
	2	5	4	2	1	4	11	22	
	3	6	4	2	1	4	11	21	
	4	7	4	2	1	3	9	21	
	5	12	3	2	1	3	6	19	
	6	15	3	2	1	3	6	17	
	7	18	3	2	1	3	4	17	
	8	19	2	2	1	2	3	14	
	9	24	2	2	1	2	1	13	
39	1	9	4	2	5	2	24	30	
	2	10	4	1	4	1	23	29	
	3	14	4	1	4	1	21	29	
	4	15	4	1	4	1	20	28	
	5	20	4	1	4	1	19	28	
	6	23	4	1	4	1	19	27	
	7	25	4	1	4	1	17	27	
	8	29	4	1	4	1	17	26	
	9	30	4	1	4	1	16	26	
40	1	1	4	4	4	2	14	18	
	2	5	4	4	3	1	12	18	
	3	7	3	4	3	1	11	16	
	4	8	3	3	3	1	8	16	
	5	9	3	3	3	1	8	15	
	6	10	2	2	3	1	5	13	
	7	21	2	1	3	1	5	12	
	8	26	1	1	3	1	4	11	
	9	28	1	1	3	1	1	11	
41	1	2	3	2	3	4	29	19	
	2	3	2	2	3	4	26	18	
	3	5	2	2	3	4	25	17	
	4	9	2	2	2	3	25	15	
	5	12	1	2	2	3	22	14	
	6	18	1	2	2	3	22	13	
	7	25	1	2	2	2	21	13	
	8	26	1	2	1	2	20	12	
	9	27	1	2	1	2	19	11	
42	1	3	3	2	3	3	28	13	
	2	5	3	1	3	3	26	12	
	3	9	3	1	3	3	25	11	
	4	12	3	1	3	3	22	9	
	5	18	2	1	3	3	22	9	
	6	22	2	1	3	3	20	8	
	7	23	2	1	3	3	18	6	
	8	24	2	1	3	3	15	6	
	9	30	2	1	3	3	14	5	
43	1	1	5	4	4	3	21	27	
	2	2	5	4	4	3	20	24	
	3	4	5	4	4	3	19	21	
	4	12	5	4	4	3	17	19	
	5	21	5	3	3	3	15	18	
	6	22	5	3	3	3	14	18	
	7	23	5	3	3	3	12	14	
	8	27	5	3	3	3	11	14	
	9	28	5	3	3	3	9	12	
44	1	6	2	4	3	2	21	2	
	2	8	1	4	3	1	19	2	
	3	9	1	4	3	1	19	1	
	4	9	1	4	3	1	17	2	
	5	13	1	3	2	1	17	2	
	6	17	1	3	2	1	15	2	
	7	18	1	2	2	1	14	2	
	8	19	1	2	1	1	14	2	
	9	23	1	2	1	1	13	2	
45	1	3	5	3	5	3	15	28	
	2	13	4	2	4	3	15	26	
	3	16	4	2	3	3	15	24	
	4	18	3	2	3	3	15	23	
	5	19	3	2	2	3	15	22	
	6	20	3	2	2	2	15	21	
	7	25	3	2	2	2	15	20	
	8	29	2	2	1	2	15	20	
	9	30	2	2	1	2	15	19	
46	1	1	2	3	3	4	13	20	
	2	11	1	3	3	3	12	19	
	3	13	1	3	3	3	11	17	
	4	15	1	3	3	3	10	16	
	5	17	1	3	3	3	9	15	
	6	18	1	3	3	3	8	15	
	7	19	1	3	3	3	8	14	
	8	26	1	3	3	3	7	12	
	9	27	1	3	3	3	6	12	
47	1	1	3	3	5	5	11	16	
	2	7	3	2	4	4	10	16	
	3	8	3	2	4	4	10	15	
	4	12	3	2	4	4	9	16	
	5	13	3	2	4	4	9	15	
	6	17	2	2	4	4	9	15	
	7	19	2	2	4	4	8	16	
	8	20	2	2	4	4	8	15	
	9	21	2	2	4	4	8	14	
48	1	2	2	3	3	5	17	25	
	2	12	2	3	3	4	16	24	
	3	13	2	3	3	4	15	23	
	4	15	2	3	3	3	13	22	
	5	17	2	3	3	3	13	21	
	6	22	2	2	3	3	12	20	
	7	23	2	2	3	3	12	19	
	8	24	2	2	3	2	11	19	
	9	26	2	2	3	2	10	18	
49	1	3	4	3	4	4	29	21	
	2	11	4	3	4	4	25	19	
	3	12	4	3	3	4	25	18	
	4	15	4	3	3	4	23	15	
	5	19	3	3	3	4	20	15	
	6	24	3	3	2	4	18	12	
	7	25	2	3	2	4	15	10	
	8	26	2	3	1	4	13	10	
	9	27	2	3	1	4	12	7	
50	1	7	3	4	3	1	23	16	
	2	8	3	4	3	1	21	15	
	3	15	3	4	3	1	19	15	
	4	17	3	4	2	1	18	14	
	5	18	3	4	2	1	15	13	
	6	20	3	4	2	1	12	12	
	7	21	3	4	2	1	11	11	
	8	28	3	4	1	1	9	9	
	9	30	3	4	1	1	5	9	
51	1	4	2	4	1	5	16	21	
	2	5	2	4	1	4	16	19	
	3	12	2	4	1	4	15	16	
	4	17	2	4	1	4	13	13	
	5	18	1	4	1	4	13	11	
	6	19	1	4	1	4	11	9	
	7	20	1	4	1	4	10	9	
	8	22	1	4	1	4	10	5	
	9	29	1	4	1	4	8	4	
52	1	3	4	4	4	4	28	27	
	2	4	4	4	4	4	27	23	
	3	5	4	4	3	4	27	22	
	4	6	4	4	3	4	26	22	
	5	14	4	3	3	4	25	19	
	6	17	4	3	2	3	24	19	
	7	24	4	2	1	3	24	17	
	8	28	4	2	1	3	22	15	
	9	29	4	2	1	3	22	13	
53	1	1	4	4	4	4	27	25	
	2	7	4	3	4	4	26	25	
	3	11	4	3	4	4	25	23	
	4	19	4	3	4	4	25	21	
	5	20	3	3	4	4	24	18	
	6	22	3	3	4	4	24	16	
	7	25	3	3	4	4	23	14	
	8	28	3	3	4	4	23	11	
	9	29	3	3	4	4	23	8	
54	1	3	4	4	1	2	12	20	
	2	11	3	4	1	2	11	20	
	3	15	3	4	1	2	11	18	
	4	16	3	3	1	2	8	15	
	5	21	2	3	1	2	7	14	
	6	23	2	3	1	2	6	14	
	7	24	2	3	1	2	4	12	
	8	25	2	2	1	2	3	9	
	9	30	2	2	1	2	2	9	
55	1	6	4	5	3	5	7	28	
	2	7	3	4	2	4	7	28	
	3	8	3	4	2	4	7	27	
	4	9	3	4	2	4	7	25	
	5	13	2	3	2	4	6	24	
	6	15	2	3	2	3	6	24	
	7	16	1	3	2	3	6	23	
	8	19	1	3	2	3	6	21	
	9	22	1	3	2	3	6	20	
56	1	3	3	4	2	3	18	26	
	2	4	2	4	1	3	17	26	
	3	7	2	4	1	3	17	25	
	4	14	2	4	1	3	17	24	
	5	16	2	4	1	3	17	23	
	6	18	2	4	1	3	16	26	
	7	19	2	4	1	3	16	25	
	8	27	2	4	1	3	16	24	
	9	28	2	4	1	3	16	23	
57	1	3	2	4	2	4	15	10	
	2	5	2	3	2	3	14	9	
	3	8	2	3	2	3	12	9	
	4	10	2	3	2	3	11	9	
	5	13	2	2	1	3	9	9	
	6	19	2	2	1	2	7	9	
	7	24	2	1	1	2	7	9	
	8	26	2	1	1	2	6	9	
	9	29	2	1	1	2	4	9	
58	1	8	5	5	4	2	9	25	
	2	10	5	4	4	2	9	25	
	3	14	5	4	4	2	9	24	
	4	15	5	3	3	2	9	23	
	5	16	5	3	2	2	9	23	
	6	19	5	2	2	2	9	22	
	7	20	5	2	1	2	9	22	
	8	24	5	1	1	2	9	22	
	9	28	5	1	1	2	9	21	
59	1	1	3	5	3	4	28	10	
	2	5	3	4	3	3	27	9	
	3	9	3	4	3	3	26	9	
	4	12	3	3	3	2	26	8	
	5	13	3	2	2	2	25	8	
	6	14	3	2	2	2	25	7	
	7	16	3	2	1	2	24	7	
	8	19	3	1	1	1	23	6	
	9	28	3	1	1	1	23	5	
60	1	3	1	3	5	1	26	20	
	2	6	1	3	4	1	23	20	
	3	9	1	3	4	1	21	19	
	4	13	1	3	4	1	19	17	
	5	14	1	3	3	1	18	16	
	6	15	1	2	3	1	14	16	
	7	16	1	2	3	1	12	14	
	8	22	1	2	3	1	12	13	
	9	29	1	2	3	1	10	13	
61	1	1	4	2	3	4	10	25	
	2	8	4	1	3	4	10	24	
	3	9	3	1	3	4	10	24	
	4	10	3	1	3	4	9	23	
	5	16	3	1	3	4	9	22	
	6	17	2	1	3	3	9	21	
	7	18	2	1	3	3	9	20	
	8	26	1	1	3	3	8	19	
	9	29	1	1	3	3	8	18	
62	1	1	1	4	2	2	19	15	
	2	16	1	4	2	2	19	14	
	3	17	1	4	2	2	17	15	
	4	20	1	4	2	2	16	15	
	5	21	1	4	1	1	14	15	
	6	26	1	3	1	1	14	15	
	7	28	1	3	1	1	12	15	
	8	29	1	3	1	1	12	14	
	9	30	1	3	1	1	10	15	
63	1	3	3	3	5	3	21	23	
	2	11	2	3	4	3	20	19	
	3	14	2	3	4	3	20	18	
	4	15	2	3	3	3	20	16	
	5	16	1	3	3	3	20	15	
	6	21	1	2	3	3	19	15	
	7	24	1	2	3	3	19	12	
	8	27	1	2	2	3	19	12	
	9	29	1	2	2	3	19	10	
64	1	1	2	2	1	5	7	14	
	2	2	1	1	1	4	6	12	
	3	3	1	1	1	4	6	11	
	4	8	1	1	1	4	5	9	
	5	11	1	1	1	4	4	8	
	6	22	1	1	1	3	4	8	
	7	24	1	1	1	3	3	7	
	8	25	1	1	1	3	3	6	
	9	28	1	1	1	3	3	4	
65	1	2	2	1	3	5	11	13	
	2	11	2	1	3	4	11	11	
	3	13	2	1	3	4	11	10	
	4	18	2	1	3	4	11	8	
	5	20	2	1	3	3	11	8	
	6	21	2	1	3	3	11	5	
	7	22	2	1	3	2	11	4	
	8	25	2	1	3	2	11	2	
	9	29	2	1	3	2	11	1	
66	1	5	2	2	1	5	7	16	
	2	8	2	2	1	5	6	15	
	3	15	2	2	1	5	5	12	
	4	16	2	2	1	5	4	12	
	5	18	2	2	1	5	4	11	
	6	19	1	1	1	5	3	9	
	7	20	1	1	1	5	2	8	
	8	21	1	1	1	5	2	5	
	9	24	1	1	1	5	1	5	
67	1	1	4	2	5	5	21	30	
	2	2	4	2	4	5	18	23	
	3	5	4	2	4	5	16	23	
	4	9	4	2	3	5	15	20	
	5	13	4	2	3	5	12	17	
	6	19	4	2	2	5	10	12	
	7	20	4	2	2	5	8	11	
	8	27	4	2	1	5	5	7	
	9	28	4	2	1	5	4	2	
68	1	3	2	4	3	3	25	29	
	2	8	2	4	3	2	25	28	
	3	10	2	3	3	2	25	27	
	4	11	2	3	3	2	25	25	
	5	14	1	3	3	2	25	25	
	6	16	1	2	3	1	25	25	
	7	17	1	2	3	1	25	24	
	8	24	1	1	3	1	25	22	
	9	25	1	1	3	1	25	21	
69	1	2	4	2	4	5	28	18	
	2	5	4	2	4	4	28	16	
	3	7	4	2	4	4	26	14	
	4	16	4	2	3	4	25	11	
	5	17	4	2	3	3	23	11	
	6	21	3	2	3	3	20	9	
	7	24	3	2	3	3	20	6	
	8	25	3	2	2	3	16	4	
	9	28	3	2	2	3	16	3	
70	1	1	3	1	2	4	27	21	
	2	2	3	1	2	4	26	20	
	3	6	3	1	2	4	26	18	
	4	7	3	1	2	4	25	18	
	5	8	3	1	1	4	25	17	
	6	9	3	1	1	4	24	16	
	7	13	3	1	1	4	24	15	
	8	18	3	1	1	4	24	14	
	9	20	3	1	1	4	23	14	
71	1	1	2	5	2	2	14	19	
	2	5	2	4	2	1	12	19	
	3	8	2	4	2	1	9	16	
	4	10	2	3	2	1	8	15	
	5	13	2	3	2	1	6	12	
	6	14	2	3	1	1	5	8	
	7	16	2	3	1	1	3	8	
	8	25	2	2	1	1	3	5	
	9	30	2	2	1	1	1	2	
72	1	1	5	4	4	3	8	19	
	2	8	4	3	4	3	7	16	
	3	9	4	3	4	3	6	14	
	4	10	4	3	4	3	6	11	
	5	11	3	3	4	3	6	10	
	6	12	3	2	4	3	5	9	
	7	13	3	2	4	3	5	6	
	8	27	3	2	4	3	4	3	
	9	28	3	2	4	3	4	2	
73	1	3	2	4	5	3	20	8	
	2	6	2	4	4	2	19	8	
	3	7	2	4	4	2	19	7	
	4	9	2	4	4	2	18	7	
	5	10	2	4	3	1	18	7	
	6	20	1	4	3	1	18	6	
	7	21	1	4	3	1	17	6	
	8	22	1	4	3	1	17	5	
	9	28	1	4	3	1	17	4	
74	1	4	3	3	3	2	9	12	
	2	5	3	3	3	1	9	10	
	3	10	3	3	3	1	8	9	
	4	13	3	2	3	1	7	7	
	5	19	3	2	3	1	6	6	
	6	22	3	2	3	1	6	5	
	7	23	3	2	3	1	6	4	
	8	26	3	1	3	1	5	2	
	9	27	3	1	3	1	4	1	
75	1	3	3	5	2	5	22	22	
	2	4	3	4	1	5	21	20	
	3	9	3	4	1	5	21	19	
	4	12	3	3	1	5	19	19	
	5	19	3	2	1	5	19	18	
	6	24	3	2	1	5	18	17	
	7	28	3	1	1	5	18	17	
	8	29	3	1	1	5	16	15	
	9	30	3	1	1	5	16	14	
76	1	5	5	4	2	5	14	24	
	2	6	4	3	2	4	13	24	
	3	14	4	3	2	4	12	23	
	4	18	4	3	2	4	11	22	
	5	19	4	2	2	4	11	21	
	6	20	4	2	2	4	11	19	
	7	26	4	2	2	4	10	19	
	8	27	4	1	2	4	10	17	
	9	30	4	1	2	4	9	17	
77	1	1	3	4	2	1	29	17	
	2	4	3	4	2	1	23	16	
	3	12	3	4	2	1	21	16	
	4	15	3	4	2	1	20	16	
	5	17	2	4	2	1	18	15	
	6	22	2	4	2	1	13	15	
	7	23	1	4	2	1	11	15	
	8	25	1	4	2	1	9	14	
	9	26	1	4	2	1	8	14	
78	1	4	5	5	3	4	21	13	
	2	5	4	4	3	4	19	13	
	3	10	4	4	3	3	17	12	
	4	11	3	4	3	3	15	10	
	5	12	3	4	3	2	11	9	
	6	14	3	4	3	2	8	9	
	7	19	3	4	3	2	5	7	
	8	20	2	4	3	1	4	6	
	9	28	2	4	3	1	2	6	
79	1	4	4	3	5	3	25	14	
	2	9	4	3	5	3	23	13	
	3	10	4	3	5	3	21	13	
	4	13	4	3	5	2	19	13	
	5	16	4	3	5	2	18	13	
	6	21	4	2	5	2	14	12	
	7	21	4	2	5	1	12	13	
	8	22	4	2	5	1	12	12	
	9	23	4	2	5	1	8	12	
80	1	6	4	3	2	1	13	28	
	2	8	3	3	2	1	13	28	
	3	9	3	3	2	1	13	27	
	4	15	3	3	2	1	13	26	
	5	16	3	3	2	1	12	26	
	6	19	3	3	2	1	12	25	
	7	25	3	3	2	1	11	25	
	8	26	3	3	2	1	11	24	
	9	27	3	3	2	1	11	23	
81	1	10	4	5	1	4	10	21	
	2	11	4	5	1	4	9	20	
	3	12	4	5	1	4	8	20	
	4	14	4	5	1	4	6	20	
	5	15	3	5	1	3	6	19	
	6	16	3	5	1	3	5	19	
	7	21	3	5	1	3	4	19	
	8	22	3	5	1	3	3	19	
	9	30	3	5	1	3	3	18	
82	1	5	5	4	2	4	29	27	
	2	9	4	4	2	4	26	26	
	3	14	3	4	2	4	26	25	
	4	15	3	4	2	4	25	24	
	5	20	3	4	1	4	23	24	
	6	21	2	4	1	4	20	24	
	7	26	1	4	1	4	19	23	
	8	27	1	4	1	4	19	22	
	9	28	1	4	1	4	16	22	
83	1	5	3	4	3	5	27	27	
	2	6	3	4	3	4	27	23	
	3	7	3	4	3	4	25	21	
	4	9	3	3	3	4	23	20	
	5	10	2	3	2	4	21	19	
	6	18	2	2	2	3	20	15	
	7	26	2	2	2	3	18	14	
	8	27	2	1	2	3	15	12	
	9	28	2	1	2	3	15	10	
84	1	4	2	2	1	2	28	20	
	2	6	2	2	1	1	28	17	
	3	7	2	2	1	1	25	16	
	4	8	2	2	1	1	25	13	
	5	10	2	2	1	1	24	13	
	6	11	1	2	1	1	21	12	
	7	15	1	2	1	1	19	8	
	8	20	1	2	1	1	18	6	
	9	29	1	2	1	1	18	5	
85	1	2	5	5	1	4	9	11	
	2	4	4	5	1	4	8	11	
	3	5	3	5	1	4	7	11	
	4	7	3	5	1	3	7	11	
	5	15	2	5	1	2	6	11	
	6	17	2	5	1	2	5	11	
	7	21	1	5	1	2	4	11	
	8	23	1	5	1	1	2	12	
	9	24	1	5	1	1	2	11	
86	1	2	2	4	4	5	14	7	
	2	9	2	3	3	5	13	6	
	3	10	2	3	3	5	12	5	
	4	14	2	2	3	5	11	5	
	5	15	2	2	3	5	8	3	
	6	18	2	2	2	5	8	3	
	7	21	2	1	2	5	6	2	
	8	27	2	1	2	5	4	2	
	9	28	2	1	2	5	4	1	
87	1	11	2	3	5	3	19	25	
	2	12	1	2	4	2	19	21	
	3	13	1	2	4	2	18	20	
	4	14	1	2	4	2	17	20	
	5	16	1	2	3	2	17	17	
	6	17	1	1	3	1	17	17	
	7	18	1	1	3	1	16	15	
	8	21	1	1	2	1	15	12	
	9	25	1	1	2	1	15	11	
88	1	4	4	4	1	4	25	11	
	2	7	3	4	1	4	25	9	
	3	8	3	4	1	4	24	8	
	4	12	3	3	1	4	23	8	
	5	18	3	3	1	4	22	6	
	6	25	2	2	1	4	20	5	
	7	27	2	1	1	4	19	5	
	8	28	2	1	1	4	18	4	
	9	30	2	1	1	4	17	3	
89	1	3	3	4	2	5	29	13	
	2	11	3	4	1	4	26	12	
	3	13	3	4	1	4	23	11	
	4	14	3	4	1	4	21	10	
	5	15	3	4	1	4	19	8	
	6	19	2	3	1	3	17	7	
	7	26	2	3	1	3	16	6	
	8	27	2	3	1	3	15	5	
	9	29	2	3	1	3	13	5	
90	1	1	4	3	2	2	18	29	
	2	2	3	3	2	2	16	28	
	3	4	3	3	2	2	16	27	
	4	11	3	3	2	2	14	26	
	5	12	2	3	2	2	13	26	
	6	16	2	3	2	2	13	25	
	7	21	1	3	2	2	12	25	
	8	29	1	3	2	2	11	24	
	9	30	1	3	2	2	9	23	
91	1	7	2	3	4	3	29	28	
	2	8	1	2	4	3	29	27	
	3	11	1	2	4	3	28	25	
	4	12	1	2	4	3	28	23	
	5	13	1	2	4	3	28	21	
	6	14	1	2	4	3	27	21	
	7	16	1	2	4	3	27	19	
	8	23	1	2	4	3	26	17	
	9	28	1	2	4	3	26	16	
92	1	6	2	5	4	4	17	22	
	2	9	2	4	4	4	16	19	
	3	14	2	4	4	4	16	18	
	4	15	2	4	3	4	16	15	
	5	16	2	3	2	4	15	15	
	6	23	2	3	2	4	14	12	
	7	24	2	3	1	4	14	9	
	8	25	2	2	1	4	13	8	
	9	29	2	2	1	4	13	4	
93	1	1	1	3	5	1	21	28	
	2	2	1	3	4	1	21	26	
	3	3	1	3	4	1	21	25	
	4	6	1	3	4	1	21	22	
	5	7	1	3	3	1	21	22	
	6	8	1	2	3	1	21	21	
	7	10	1	2	2	1	21	18	
	8	16	1	2	2	1	21	17	
	9	30	1	2	2	1	21	15	
94	1	4	2	1	2	2	24	13	
	2	6	2	1	2	2	21	13	
	3	10	2	1	2	2	20	12	
	4	16	2	1	2	2	17	12	
	5	17	1	1	2	2	16	11	
	6	20	1	1	1	2	15	10	
	7	22	1	1	1	2	13	10	
	8	28	1	1	1	2	10	9	
	9	30	1	1	1	2	9	9	
95	1	5	2	4	4	4	30	19	
	2	9	2	3	4	4	29	16	
	3	10	2	3	4	4	29	15	
	4	11	2	2	4	4	29	13	
	5	12	1	2	4	4	29	11	
	6	13	1	2	4	4	29	9	
	7	14	1	1	4	4	29	7	
	8	17	1	1	4	4	29	5	
	9	24	1	1	4	4	29	4	
96	1	4	3	4	5	4	21	24	
	2	6	3	4	5	4	19	23	
	3	15	3	3	5	4	16	21	
	4	21	3	3	5	4	15	20	
	5	24	3	2	5	4	12	17	
	6	25	3	2	5	4	9	15	
	7	26	3	1	5	4	8	12	
	8	27	3	1	5	4	4	10	
	9	28	3	1	5	4	2	6	
97	1	3	3	2	4	4	21	18	
	2	5	2	2	4	4	19	15	
	3	6	2	2	4	3	19	13	
	4	9	2	2	4	3	18	13	
	5	11	1	2	4	3	16	10	
	6	15	1	2	4	2	15	9	
	7	16	1	2	4	1	13	8	
	8	21	1	2	4	1	13	5	
	9	24	1	2	4	1	11	4	
98	1	8	3	3	3	4	27	20	
	2	11	3	3	3	3	26	19	
	3	13	3	3	3	3	24	18	
	4	15	3	3	3	2	23	15	
	5	16	2	2	3	2	22	14	
	6	18	2	2	3	2	21	12	
	7	27	2	2	3	1	21	11	
	8	29	1	1	3	1	19	9	
	9	30	1	1	3	1	18	8	
99	1	1	1	4	2	2	21	27	
	2	8	1	4	1	1	21	26	
	3	11	1	4	1	1	21	24	
	4	12	1	4	1	1	21	23	
	5	16	1	4	1	1	21	22	
	6	17	1	4	1	1	21	21	
	7	24	1	4	1	1	21	20	
	8	26	1	4	1	1	21	19	
	9	27	1	4	1	1	21	18	
100	1	2	4	2	2	3	8	17	
	2	6	4	2	2	3	7	16	
	3	19	4	2	2	3	7	15	
	4	20	4	2	2	3	7	14	
	5	21	4	2	2	2	6	14	
	6	22	4	2	2	2	6	13	
	7	23	4	2	2	1	5	13	
	8	24	4	2	2	1	5	12	
	9	25	4	2	2	1	5	11	
101	1	3	5	2	3	2	24	4	
	2	6	4	1	3	2	21	3	
	3	8	3	1	3	2	19	3	
	4	11	3	1	3	2	17	3	
	5	12	2	1	3	2	16	3	
	6	13	2	1	2	1	15	2	
	7	17	2	1	2	1	13	2	
	8	19	1	1	2	1	10	2	
	9	24	1	1	2	1	9	2	
102	1	0	0	0	0	0	0	0	
************************************************************************

 RESOURCE AVAILABILITIES 
	R 1	R 2	R 3	R 4	N 1	N 2
	76	75	78	77	1333	1220

************************************************************************
